c WARNING: for repeatability, setting FPU to use double precision
d VARIABLES            72338        
d CONSTRAINTS          255856       
c ============================[ Problem Statistics ]=============================
c |                                                                             |
c |  Number of variables:         72338                                         |
c |  Number of clauses:          255856                                         |
c |  Parse time:                   0.04 s                                       |
c |                                                                             |
c ============================[ Search Statistics ]==============================
c | Conflicts |          ORIGINAL         |          LEARNT          | Progress |
c |           |    Vars  Clauses Literals |    Limit  Clauses Lit/Cl |          |
c ===============================================================================
c |       100 |   52647   205030   515889 |    75177       99      6 | 27.221 % |
c |       250 |   52647   205019   515863 |    82695      249     13 | 27.221 % |
c |       475 |   52647   205019   515863 |    90964      474     52 | 27.221 % |
c |       812 |   52647   205019   515863 |   100061      811     37 | 27.221 % |
c |      1318 |   52647   205019   515863 |   110067     1317     32 | 27.221 % |
c |      2077 |   52647   205019   515863 |   121074     2076     36 | 27.221 % |
c |      3216 |   52647   205019   515863 |   133181     3215     48 | 27.221 % |
c |      4924 |   52647   205019   515863 |   146500     4923     55 | 27.221 % |
c |      7486 |   52647   205019   515863 |   161150     7485     65 | 27.221 % |
c |     11330 |   52647   205019   515863 |   177265    11329     77 | 27.221 % |
c |     17096 |   52647   205019   515863 |   194991    17095     91 | 27.221 % |
c |     25745 |   52647   205019   515863 |   214490    25744    103 | 27.221 % |
c |     38719 |   52647   205019   515863 |   235939    38718    109 | 27.221 % |
c |     58180 |   52647   205019   515863 |   259533    58179    112 | 27.221 % |
c |     87372 |   52646   205008   515837 |   285487    87367    119 | 27.222 % |
c |    131161 |   52643   204975   515759 |   314035   131143    123 | 27.226 % |
c |    196845 |   52635   204905   515593 |   345439   196790    129 | 27.237 % |
c ===============================================================================
c restarts              : 668
c conflicts             : 281600         (2540 /sec)
c decisions             : 816133         (0.00 % random) (7362 /sec)
c propagations          : 343028847      (3094283 /sec)
c conflict literals     : 37022453       (39.13 % deleted)
d RESTARTS             668
d FAILURES             281600       
d NODES                816133       
d BACKTRACKS           816133       
d PROPAGATIONS         343028847    
d NOGOODSIZE           131.47 
d MEMORY               245.00 
d TIME                 110.859 

s UNSATISFIABLE
